8 6 149
5 7 1 5 1 2 2 3 2 7 3 13 43 43 70 72 96 96 114 114 147 
5 8 1 7 2 4 1 4 2 1 2 18 45 45 72 72 114 114 132 132 147 
4 6 1 6 2 8 2 8 3 5 41 41 98 98 128 128 149 
5 3 1 2 1 1 1 5 2 6 3 7 31 35 65 65 80 80 131 131 149 
18 3 1 0 0 8 1 0 0 2 1 0 0 1 1 0 0 4 1 8 2 0 0 5 2 3 2 0 0 7 3 0 0 6 3 1 2 0 7 7 14 14 18 18 28 28 35 35 42 42 49 49 56 56 60 60 64 66 70 70 75 75 82 82 84 84 91 95 98 98 101 101 107 
8 6 1 0 0 7 1 0 0 5 1 7 2 0 0 2 2 0 5 5 11 11 13 13 22 22 24 43 45 62 65 65 72 
